set T := 
PV1
PV1NM
WIND
WINDNM
UTIL1
;
param btg :=
PV1 0
PV1NM 0
WIND 0
WINDNM 0
UTIL1 1
;
set D :=
1R
1W
1X
1S
;
param blm :=
PV1 1R 1
PV1 1W 1
PV1 1X 1
PV1 1S 1
PV1NM 1R 1
PV1NM 1W 1
PV1NM 1X 1
PV1NM 1S 1
WIND 1R 1
WIND 1W 1
WIND 1X 1
WIND 1S 1
WINDNM 1R 1
WINDNM 1W 1
WINDNM 1X 1
WINDNM 1S 1
UTIL1 1R 1
UTIL1 1W 0
UTIL1 1X 0
UTIL1 1S 0
;
set C :=
PV1
WIND
GENERATOR
UTIL
;
set V :=
BelowNM
NMtoIL
AboveIL
;
param f_d :=
PV1 1
PV1NM 1
WIND 1
WINDNM 1
UTIL1 0
;
param bm :=
PV1 PV1 1
PV1 WIND 0
PV1 GENERATOR 0
PV1 UTIL 0
PV1NM PV1 1
PV1NM WIND 0
PV1NM GENERATOR 0
PV1NM UTIL 0
WIND PV1 0
WIND WIND 1
WIND GENERATOR 0
WIND UTIL 0
WINDNM PV1 0
WINDNM WIND 1
WINDNM GENERATOR 0
WINDNM UTIL 0
UTIL1 PV1 0
UTIL1 WIND 0
UTIL1 GENERATOR 0
UTIL1 UTIL 0
;
